
Gurobi 9.5.1 (win64) logging started Thu Nov  9 18:11:57 2023

Set parameter LogFile to value "consol_info_7"

Gurobi 9.5.1 (win64) logging started Sat Nov 11 13:12:51 2023

Set parameter LogFile to value "consol_info_7"
